language ESSENCE' 1.0

letting fixed be 
[
    [5,1,8,4,7,2,6,3,9],
    [3,0,6,8,5,9,0,0,4],
    [4,0,9,3,1,6,0,0,0],
    [9,4,5,6,2,0,3,0,0],
    [8,6,1,0,3,4,0,0,5],
    [7,3,2,0,8,5,0,0,6],
    [6,5,0,0,9,0,8,0,3],
    [2,9,3,0,4,8,0,6,1],
    [1,8,0,0,6,3,0,0,0]
]